dates = {'2022-02-08','2022-02-09','2022-02-10','2022-02-11','2022-02-12','2022-02-13','2022-02-14'};

daysOfWeek = [Tuesday,Wednesday,Thursday,Friday,Saturday,Sunday,Monday];

% For this week, how many people will be here.
numPeople = [156,156,156,156,156,156,156];

% Physical workers need 50 to 100 % more nutrients per day.
numPhysicalWorkers = [51.5,51.5,51.5,51.5,51.5,51.5,55.0];

% Males need +25% more nutrients per day.
numMen = [128,128,128,128,128,128,132];

% Num people who do not eat categories. contains = {none, meat, milk, gluten, egg, nut, seed, sugars}
numRefusals = [| 0,5,0,0,8,5,10,21 | 0,5,0,0,8,5,10,21 | 0,5,0,0,8,5,10,21 | 0,5,0,0,8,5,10,21 | 0,5,0,0,8,5,10,21 | 0,5,0,0,8,5,10,21 | 0,5,0,0,8,5,10,21 |];

